; benchmark generated from python API
(set-info :status unknown)
(declare-datatypes ((IntState 0)) (((Mk1 (val1 Int)) (Mk2 (val2 Int)))))
 (declare-fun c_main_~k~6 () Int)
(declare-fun c_main_~j~6 () Int)
(declare-fun c_main_~i~6 () Int)
(assert
 (let (($x138 (exists ((main_~i~6_st IntState) (val!171 Int) )(let ((?x56 (val2 main_~i~6_st)))
 (let (($x14 (<= ?x56 2)))
 (let (($x52 (not (= main_~i~6_st (Mk1 val!171)))))
 (and $x52 (and (<= c_main_~j~6 (* 2 ?x56)) $x14 (<= ?x56 c_main_~k~6)))))))
 ))
 (let (($x141 (<= c_main_~i~6 2)))
 (let (($x137 (<= c_main_~j~6 (* 2 c_main_~i~6))))
 (let (($x41 (exists ((v_nnf_6 Int) )(let ((?x21 (* 2 v_nnf_6)))
 (let (($x160 (<= c_main_~j~6 ?x21)))
 (let (($x48 (<= v_nnf_6 2)))
 (and (<= (+ v_nnf_6 2) c_main_~k~6) $x48 $x160)))))
 ))
 (and (and $x137 $x141 $x41) (not (and $x137 $x141 $x138))))))))
(check-sat)
